9
0 36 34 28 86 49 55 60 80 
65 0 5 40 34 50 100 32 93 
24 72 0 56 100 96 36 66 30 
55 92 42 0 64 87 78 82 45 
96 63 32 67 0 70 97 62 87 
39 4 72 99 52 0 61 56 19 
9 41 15 41 56 38 0 66 14 
22 34 51 10 60 69 20 0 25 
59 49 56 31 83 24 13 77 0 
